width,height
10,25
4,8
1,7
1,10
2,9
5,2
4,1
2,6
4,3
4,2
3,3
1,8
2,7
3,6
4,3
3,7
3,3
4,4
1,9
3,3
4,8
2,3
3,2
5,10
1,4
1,5
4,5
1,5
1,6
2,9
1,6
5,6
1,8
5,6
5,8
1,2
3,7
2,5
5,1
2,2
4,3
2,10
5,4
1,3
2,4
5,4
4,8
5,3
3,9
1,6
1,10
5,10
4,10
4,1
4,6
4,8
4,6
2,3
5,7
1,9
2,6
4,3
3,10
3,5
5,9
2,9
5,3
4,9
3,1
1,6
5,8
2,9
5,10
2,5
1,1
1,8
5,6
5,7
5,9
2,10
4,6
1,10
4,3
1,8
2,1
3,5
5,7
3,8
4,1
2,6
5,10
1,2
1,3
3,7
3,6
5,7
4,3
2,2
5,6
4,10
5,6
